&CONTROL
    calculation = 'relax',            ! Cálculo relajacion
    prefix = 'epoxide',
    outdir = './O/',              ! Directorio de salida
    pseudo_dir = './pseudos',              ! Directorio de pseudopotenciales
    verbosity = 'low',             ! Verbosidad alta para obtener más información
    tprnfor = .true.,              ! Para que se impriman las fuerzas
/

&SYSTEM
    ibrav = 0,                     ! Definición de la celda con ibrav = 0 (celda general)
    ecutwfc = 30.0,                ! Energía de corte para las funciones de onda
    nat = 19,                       ! Número de átomos
    ntyp = 2,                      ! Número de tipos de átomos (H y C)
    occupations = 'smearing',         ! Ocupaciones fijas para un semiconductor
    smearing   = 'gaussian',
    degauss    = 0.025,
    vdw_corr = 'grimme-d3'   
/

&ELECTRONS
    conv_thr = 1.0d-8,             ! Umbral de convergencia scf
/

&IONS
    ion_dynamics = 'bfgs'         ! Método de dinámica de iones BFGS
/

CELL_PARAMETERS (angstrom)
     7.4031720161         0.0000000000         0.0000000000
       -3.7015860081         6.4113350346         0.0000000000
        0.0000000000         0.0000000000         12.00000000
ATOMIC_SPECIES
C 12.011   C.pbe-n-rrkjus_psl.1.0.0.UPF
O 16.000   O.pbe-n-rrkjus_psl.1.0.0.UPF 
ATOMIC_POSITIONS (angstrom)
 C    0.000000    0.000000    2.171259
 C   -1.233862    2.137112    2.171259
 C   -2.467724    4.274223    2.171259
 C    2.467724    0.000000    2.171259
 C    1.233862    2.137112    2.171259
 C    0.000000    4.274223    2.171259
 C    4.935448    0.000000    2.171259
 C    3.701586    2.137112    2.171259
 C    2.467724    4.274223    2.171259
 C    1.233862    0.712371    2.171259
 C    0.000000    2.849482    2.171259
 C   -1.233862    4.986594    2.171259
 C    3.701586    0.712371    2.171259
 C    2.467724    2.849482    2.171259
 C    1.233862    4.986594    2.171259
 C    6.169310    0.712371    2.171259
 C    4.935448    2.849482    2.171259
 C    3.701586    4.986594    2.171259
 O    1.833862    3.137112    3.800000
K_POINTS (automatic)
10 10 10 0 0 0
